50	
16243	
30242	
539	171
759	356
980	645
764	361
1049	767
1023	718
508	151
879	497
1127	932
623	232
1068	804
469	128
1082	832
1114	903
938	580
1059	785
636	243
961	615
689	288
991	663
1104	879
949	596
764	361
366	77
329	62
1091	852
970	629
629	237
1118	911
704	302
1021	714
504	149
992	665
364	76
410	97
1126	930
906	534
564	188
759	356
126	9
524	161
1051	771
901	527
623	232
633	240
860	472
937	578
880	498
983	650
1014	703